38820 38479 
37908 38995 
38550 38520 
37876 39054 
38293 38905 
37989 38988 
38991 38281 
39539 37753 
39887 37184 
37271 39393 
37851 39291 
38464 38707 
36842 39559 
37366 39368 
36652 39649 
37232 39547 
38339 38834 
39181 38099 
40195 36748 
40313 36342 
40226 36670 
40232 36597 
37397 39307 
36747 39624 
35782 39708 
36443 39707 
38302 38874 
39111 38206 
38108 38932 
38777 38498 
38473 38676 
38362 38803 
39567 37730 
39830 37480 
39142 38145 
39724 37622 
39282 38008 
40575 35337 
40499 36214 
38845 38397 
38948 38300 
39496 37772 
38541 38575 
38533 38605 
37910 38992 
40057 37023 
40125 36922 
39793 37520 
39861 37419 
39313 37947 
40604 34835 
40612 34656 
40514 35855 
40467 36273 
39966 37055 
38601 38504 
40261 36497 
40293 36382 
39912 37102 
40561 35808 
